20
5 1 39
5 2 7
6 2 58
6 5 76
7 3 37
8 2 11
8 4 20
8 7 11
9 0 41
9 1 68
9 7 22
10 0 40
10 1 11
10 3 80
10 5 39
11 4 41
11 6 19
11 7 26
11 9 22
12 0 57
12 2 64
12 4 68
12 5 60
13 2 53
13 7 18
13 8 65
13 9 55
14 0 57
14 1 23
14 2 59
14 5 14
14 7 16
14 9 63
14 10 21
14 12 38
14 13 63
15 1 43
15 4 78
15 7 73
15 9 80
15 10 65
15 12 5
15 13 43
16 1 10
16 3 77
16 7 52
16 8 48
16 10 65
16 12 16
16 13 37
16 15 22
17 0 67
17 7 20
17 8 54
17 10 13
17 13 72
17 15 16
18 0 30
18 2 49
18 5 10
18 8 2
18 10 49
18 11 53
18 16 18
18 17 80
19 4 68
19 5 23
19 9 45
19 10 40
